(declare-const in128 Int)
(declare-const in129 Int)
(declare-const in126 Int)
(declare-const in127 Int)
(declare-const in71 Int)
(declare-const in62 Int)
(declare-const in61 Int)
(declare-const in121 Int)
(declare-const in64 Int)
(declare-const in63 Int)
(declare-const in124 Int)
(declare-const in21 Int)
(declare-const in65 Int)
(declare-const in125 Int)
(declare-const in122 Int)
(declare-const in123 Int)
(declare-const in117 Int)
(declare-const in118 Int)
(declare-const in115 Int)
(declare-const in116 Int)
(declare-const in119 Int)
(declare-const in51 Int)
(declare-const in95 Int)
(declare-const in94 Int)
(declare-const in53 Int)
(declare-const in97 Int)
(declare-const in52 Int)
(declare-const in96 Int)
(declare-const in113 Int)
(declare-const in54 Int)
(declare-const in98 Int)
(declare-const in1110 Int)
(declare-const in114 Int)
(declare-const in111 Int)
(declare-const in1311 Int)
(declare-const in112 Int)
(declare-const in1310 Int)
(declare-const in1312 Int)
(declare-const in106 Int)
(declare-const in107 Int)
(declare-const in104 Int)
(declare-const in105 Int)
(declare-const in91 Int)
(declare-const in93 Int)
(declare-const in108 Int)
(declare-const in109 Int)
(declare-const in92 Int)
(declare-const in84 Int)
(declare-const in83 Int)
(declare-const in42 Int)
(declare-const in86 Int)
(declare-const in41 Int)
(declare-const in85 Int)
(declare-const in102 Int)
(declare-const in43 Int)
(declare-const in87 Int)
(declare-const in103 Int)
(declare-const in02 Int)
(declare-const in101 Int)
(declare-const in01 Int)
(declare-const in04 Int)
(declare-const in03 Int)
(declare-const in06 Int)
(declare-const in05 Int)
(declare-const in08 Int)
(declare-const in07 Int)
(declare-const in09 Int)
(declare-const in139 Int)
(declare-const in137 Int)
(declare-const in138 Int)
(declare-const in82 Int)
(declare-const in81 Int)
(declare-const in73 Int)
(declare-const in131 Int)
(declare-const in010 Int)
(declare-const in72 Int)
(declare-const in132 Int)
(declare-const in011 Int)
(declare-const in31 Int)
(declare-const in75 Int)
(declare-const in74 Int)
(declare-const in1210 Int)
(declare-const in135 Int)
(declare-const in32 Int)
(declare-const in76 Int)
(declare-const in136 Int)
(declare-const in133 Int)
(declare-const in012 Int)
(declare-const in1211 Int)
(declare-const in013 Int)
(declare-const in134 Int)

(assert (and (and (and (and (and (and (and (and (and (and (and (and (and (and (and (and (and (and (and (and (and (and (and (and (and (and (and (and (and (and (and (and (and (and (and (and (and (and (and (and (and (and (and (and (and (and (and (and (and (and (and (and (and (and (and (and (and (and (and (and (and (and (and (and (and (and (and (and (and (and (and (and (and (and (and (and (and (and (and (and (and (and (and (and (and (and (and (and (and (and (and (and (and (and (and (and (and (and (and (and (and (and (and (and (and (and (and (and (and (and (and (and (and (and (and (and (and (and (and (and (and (and (and (and (and (and (and (and (and (and (and (and (and (and (and (and (and (and (and (and (and (and (and (and (and (and (and (and (and (and (and (and (and (and (and  ( <  in02 in01)  ( <  in03 in02))  ( <  in04 in03))  ( <  in05 in04))  ( <  in06 in05))  ( <  in07 in06))  ( <  in08 in07))  ( <  in09 in08))  ( <  in010 in09))  ( <  in011 in010))  ( <  in012 in011))  ( <  in013 in012))  ( <  ( +  in131 in013) in01))  ( <  ( +  in132 in013) in02))  ( <  ( +  in133 in013) in03))  ( <  ( +  in134 in013) in04))  ( <  ( +  in135 in013) in05))  ( <  ( +  in136 in013) in06))  ( <  ( +  in137 in013) in07))  ( <  ( +  in138 in013) in08))  ( <  ( +  in139 in013) in09))  ( <  ( +  in1310 in013) in010))  ( <  ( +  in1311 in013) in011))  ( <  ( +  in1312 in013) in012))  ( <  ( +  in132 in013) ( +  in131 in013)))  ( <  ( +  in133 in013) ( +  in132 in013)))  ( <  ( +  in134 in013) ( +  in133 in013)))  ( <  ( +  in135 in013) ( +  in134 in013)))  ( <  ( +  in136 in013) ( +  in135 in013)))  ( <  ( +  in137 in013) ( +  in136 in013)))  ( <  ( +  in138 in013) ( +  in137 in013)))  ( <  ( +  in139 in013) ( +  in138 in013)))  ( <  ( +  in1310 in013) ( +  in139 in013)))  ( <  ( +  in1311 in013) ( +  in1310 in013)))  ( <  ( +  in1312 in013) ( +  in1311 in013)))  ( <  ( +  in121 ( +  in1312 in013)) ( +  in131 in013)))  ( <  ( +  in122 ( +  in1312 in013)) ( +  in132 in013)))  ( <  ( +  in123 ( +  in1312 in013)) ( +  in133 in013)))  ( <  ( +  in124 ( +  in1312 in013)) ( +  in134 in013)))  ( <  ( +  in125 ( +  in1312 in013)) ( +  in135 in013)))  ( <  ( +  in126 ( +  in1312 in013)) ( +  in136 in013)))  ( <  ( +  in127 ( +  in1312 in013)) ( +  in137 in013)))  ( <  ( +  in128 ( +  in1312 in013)) ( +  in138 in013)))  ( <  ( +  in129 ( +  in1312 in013)) ( +  in139 in013)))  ( <  ( +  in1210 ( +  in1312 in013)) ( +  in1310 in013)))  ( <  ( +  in1211 ( +  in1312 in013)) ( +  in1311 in013)))  ( <  ( +  in122 ( +  in1312 in013)) ( +  in121 ( +  in1312 in013))))  ( <  ( +  in123 ( +  in1312 in013)) ( +  in122 ( +  in1312 in013))))  ( <  ( +  in124 ( +  in1312 in013)) ( +  in123 ( +  in1312 in013))))  ( <  ( +  in125 ( +  in1312 in013)) ( +  in124 ( +  in1312 in013))))  ( <  ( +  in126 ( +  in1312 in013)) ( +  in125 ( +  in1312 in013))))  ( <  ( +  in127 ( +  in1312 in013)) ( +  in126 ( +  in1312 in013))))  ( <  ( +  in128 ( +  in1312 in013)) ( +  in127 ( +  in1312 in013))))  ( <  ( +  in129 ( +  in1312 in013)) ( +  in128 ( +  in1312 in013))))  ( <  ( +  in1210 ( +  in1312 in013)) ( +  in129 ( +  in1312 in013))))  ( <  ( +  in1211 ( +  in1312 in013)) ( +  in1210 ( +  in1312 in013))))  ( <  ( +  in111 ( +  in1211 ( +  in1312 in013))) ( +  in121 ( +  in1312 in013))))  ( <  ( +  in112 ( +  in1211 ( +  in1312 in013))) ( +  in122 ( +  in1312 in013))))  ( <  ( +  in113 ( +  in1211 ( +  in1312 in013))) ( +  in123 ( +  in1312 in013))))  ( <  ( +  in114 ( +  in1211 ( +  in1312 in013))) ( +  in124 ( +  in1312 in013))))  ( <  ( +  in115 ( +  in1211 ( +  in1312 in013))) ( +  in125 ( +  in1312 in013))))  ( <  ( +  in116 ( +  in1211 ( +  in1312 in013))) ( +  in126 ( +  in1312 in013))))  ( <  ( +  in117 ( +  in1211 ( +  in1312 in013))) ( +  in127 ( +  in1312 in013))))  ( <  ( +  in118 ( +  in1211 ( +  in1312 in013))) ( +  in128 ( +  in1312 in013))))  ( <  ( +  in119 ( +  in1211 ( +  in1312 in013))) ( +  in129 ( +  in1312 in013))))  ( <  ( +  in1110 ( +  in1211 ( +  in1312 in013))) ( +  in1210 ( +  in1312 in013))))  ( <  ( +  in112 ( +  in1211 ( +  in1312 in013))) ( +  in111 ( +  in1211 ( +  in1312 in013)))))  ( <  ( +  in113 ( +  in1211 ( +  in1312 in013))) ( +  in112 ( +  in1211 ( +  in1312 in013)))))  ( <  ( +  in114 ( +  in1211 ( +  in1312 in013))) ( +  in113 ( +  in1211 ( +  in1312 in013)))))  ( <  ( +  in115 ( +  in1211 ( +  in1312 in013))) ( +  in114 ( +  in1211 ( +  in1312 in013)))))  ( <  ( +  in116 ( +  in1211 ( +  in1312 in013))) ( +  in115 ( +  in1211 ( +  in1312 in013)))))  ( <  ( +  in117 ( +  in1211 ( +  in1312 in013))) ( +  in116 ( +  in1211 ( +  in1312 in013)))))  ( <  ( +  in118 ( +  in1211 ( +  in1312 in013))) ( +  in117 ( +  in1211 ( +  in1312 in013)))))  ( <  ( +  in119 ( +  in1211 ( +  in1312 in013))) ( +  in118 ( +  in1211 ( +  in1312 in013)))))  ( <  ( +  in1110 ( +  in1211 ( +  in1312 in013))) ( +  in119 ( +  in1211 ( +  in1312 in013)))))  ( <  ( +  in101 ( +  in1110 ( +  in1211 ( +  in1312 in013)))) ( +  in111 ( +  in1211 ( +  in1312 in013)))))  ( <  ( +  in102 ( +  in1110 ( +  in1211 ( +  in1312 in013)))) ( +  in112 ( +  in1211 ( +  in1312 in013)))))  ( <  ( +  in103 ( +  in1110 ( +  in1211 ( +  in1312 in013)))) ( +  in113 ( +  in1211 ( +  in1312 in013)))))  ( <  ( +  in104 ( +  in1110 ( +  in1211 ( +  in1312 in013)))) ( +  in114 ( +  in1211 ( +  in1312 in013)))))  ( <  ( +  in105 ( +  in1110 ( +  in1211 ( +  in1312 in013)))) ( +  in115 ( +  in1211 ( +  in1312 in013)))))  ( <  ( +  in106 ( +  in1110 ( +  in1211 ( +  in1312 in013)))) ( +  in116 ( +  in1211 ( +  in1312 in013)))))  ( <  ( +  in107 ( +  in1110 ( +  in1211 ( +  in1312 in013)))) ( +  in117 ( +  in1211 ( +  in1312 in013)))))  ( <  ( +  in108 ( +  in1110 ( +  in1211 ( +  in1312 in013)))) ( +  in118 ( +  in1211 ( +  in1312 in013)))))  ( <  ( +  in109 ( +  in1110 ( +  in1211 ( +  in1312 in013)))) ( +  in119 ( +  in1211 ( +  in1312 in013)))))  ( <  ( +  in102 ( +  in1110 ( +  in1211 ( +  in1312 in013)))) ( +  in101 ( +  in1110 ( +  in1211 ( +  in1312 in013))))))  ( <  ( +  in103 ( +  in1110 ( +  in1211 ( +  in1312 in013)))) ( +  in102 ( +  in1110 ( +  in1211 ( +  in1312 in013))))))  ( <  ( +  in104 ( +  in1110 ( +  in1211 ( +  in1312 in013)))) ( +  in103 ( +  in1110 ( +  in1211 ( +  in1312 in013))))))  ( <  ( +  in105 ( +  in1110 ( +  in1211 ( +  in1312 in013)))) ( +  in104 ( +  in1110 ( +  in1211 ( +  in1312 in013))))))  ( <  ( +  in106 ( +  in1110 ( +  in1211 ( +  in1312 in013)))) ( +  in105 ( +  in1110 ( +  in1211 ( +  in1312 in013))))))  ( <  ( +  in107 ( +  in1110 ( +  in1211 ( +  in1312 in013)))) ( +  in106 ( +  in1110 ( +  in1211 ( +  in1312 in013))))))  ( <  ( +  in108 ( +  in1110 ( +  in1211 ( +  in1312 in013)))) ( +  in107 ( +  in1110 ( +  in1211 ( +  in1312 in013))))))  ( <  ( +  in109 ( +  in1110 ( +  in1211 ( +  in1312 in013)))) ( +  in108 ( +  in1110 ( +  in1211 ( +  in1312 in013))))))  ( <  ( +  in91 ( +  in109 ( +  in1110 ( +  in1211 ( +  in1312 in013))))) ( +  in101 ( +  in1110 ( +  in1211 ( +  in1312 in013))))))  ( <  ( +  in92 ( +  in109 ( +  in1110 ( +  in1211 ( +  in1312 in013))))) ( +  in102 ( +  in1110 ( +  in1211 ( +  in1312 in013))))))  ( <  ( +  in93 ( +  in109 ( +  in1110 ( +  in1211 ( +  in1312 in013))))) ( +  in103 ( +  in1110 ( +  in1211 ( +  in1312 in013))))))  ( <  ( +  in94 ( +  in109 ( +  in1110 ( +  in1211 ( +  in1312 in013))))) ( +  in104 ( +  in1110 ( +  in1211 ( +  in1312 in013))))))  ( <  ( +  in95 ( +  in109 ( +  in1110 ( +  in1211 ( +  in1312 in013))))) ( +  in105 ( +  in1110 ( +  in1211 ( +  in1312 in013))))))  ( <  ( +  in96 ( +  in109 ( +  in1110 ( +  in1211 ( +  in1312 in013))))) ( +  in106 ( +  in1110 ( +  in1211 ( +  in1312 in013))))))  ( <  ( +  in97 ( +  in109 ( +  in1110 ( +  in1211 ( +  in1312 in013))))) ( +  in107 ( +  in1110 ( +  in1211 ( +  in1312 in013))))))  ( <  ( +  in98 ( +  in109 ( +  in1110 ( +  in1211 ( +  in1312 in013))))) ( +  in108 ( +  in1110 ( +  in1211 ( +  in1312 in013))))))  ( <  ( +  in92 ( +  in109 ( +  in1110 ( +  in1211 ( +  in1312 in013))))) ( +  in91 ( +  in109 ( +  in1110 ( +  in1211 ( +  in1312 in013)))))))  ( <  ( +  in93 ( +  in109 ( +  in1110 ( +  in1211 ( +  in1312 in013))))) ( +  in92 ( +  in109 ( +  in1110 ( +  in1211 ( +  in1312 in013)))))))  ( <  ( +  in94 ( +  in109 ( +  in1110 ( +  in1211 ( +  in1312 in013))))) ( +  in93 ( +  in109 ( +  in1110 ( +  in1211 ( +  in1312 in013)))))))  ( <  ( +  in95 ( +  in109 ( +  in1110 ( +  in1211 ( +  in1312 in013))))) ( +  in94 ( +  in109 ( +  in1110 ( +  in1211 ( +  in1312 in013)))))))  ( <  ( +  in96 ( +  in109 ( +  in1110 ( +  in1211 ( +  in1312 in013))))) ( +  in95 ( +  in109 ( +  in1110 ( +  in1211 ( +  in1312 in013)))))))  ( <  ( +  in97 ( +  in109 ( +  in1110 ( +  in1211 ( +  in1312 in013))))) ( +  in96 ( +  in109 ( +  in1110 ( +  in1211 ( +  in1312 in013)))))))  ( <  ( +  in98 ( +  in109 ( +  in1110 ( +  in1211 ( +  in1312 in013))))) ( +  in97 ( +  in109 ( +  in1110 ( +  in1211 ( +  in1312 in013)))))))  ( <  ( +  in81 ( +  in98 ( +  in109 ( +  in1110 ( +  in1211 ( +  in1312 in013)))))) ( +  in91 ( +  in109 ( +  in1110 ( +  in1211 ( +  in1312 in013)))))))  ( <  ( +  in82 ( +  in98 ( +  in109 ( +  in1110 ( +  in1211 ( +  in1312 in013)))))) ( +  in92 ( +  in109 ( +  in1110 ( +  in1211 ( +  in1312 in013)))))))  ( <  ( +  in83 ( +  in98 ( +  in109 ( +  in1110 ( +  in1211 ( +  in1312 in013)))))) ( +  in93 ( +  in109 ( +  in1110 ( +  in1211 ( +  in1312 in013)))))))  ( <  ( +  in84 ( +  in98 ( +  in109 ( +  in1110 ( +  in1211 ( +  in1312 in013)))))) ( +  in94 ( +  in109 ( +  in1110 ( +  in1211 ( +  in1312 in013)))))))  ( <  ( +  in85 ( +  in98 ( +  in109 ( +  in1110 ( +  in1211 ( +  in1312 in013)))))) ( +  in95 ( +  in109 ( +  in1110 ( +  in1211 ( +  in1312 in013)))))))  ( <  ( +  in86 ( +  in98 ( +  in109 ( +  in1110 ( +  in1211 ( +  in1312 in013)))))) ( +  in96 ( +  in109 ( +  in1110 ( +  in1211 ( +  in1312 in013)))))))  ( <  ( +  in87 ( +  in98 ( +  in109 ( +  in1110 ( +  in1211 ( +  in1312 in013)))))) ( +  in97 ( +  in109 ( +  in1110 ( +  in1211 ( +  in1312 in013)))))))  ( <  ( +  in82 ( +  in98 ( +  in109 ( +  in1110 ( +  in1211 ( +  in1312 in013)))))) ( +  in81 ( +  in98 ( +  in109 ( +  in1110 ( +  in1211 ( +  in1312 in013))))))))  ( <  ( +  in83 ( +  in98 ( +  in109 ( +  in1110 ( +  in1211 ( +  in1312 in013)))))) ( +  in82 ( +  in98 ( +  in109 ( +  in1110 ( +  in1211 ( +  in1312 in013))))))))  ( <  ( +  in84 ( +  in98 ( +  in109 ( +  in1110 ( +  in1211 ( +  in1312 in013)))))) ( +  in83 ( +  in98 ( +  in109 ( +  in1110 ( +  in1211 ( +  in1312 in013))))))))  ( <  ( +  in85 ( +  in98 ( +  in109 ( +  in1110 ( +  in1211 ( +  in1312 in013)))))) ( +  in84 ( +  in98 ( +  in109 ( +  in1110 ( +  in1211 ( +  in1312 in013))))))))  ( <  ( +  in86 ( +  in98 ( +  in109 ( +  in1110 ( +  in1211 ( +  in1312 in013)))))) ( +  in85 ( +  in98 ( +  in109 ( +  in1110 ( +  in1211 ( +  in1312 in013))))))))  ( <  ( +  in87 ( +  in98 ( +  in109 ( +  in1110 ( +  in1211 ( +  in1312 in013)))))) ( +  in86 ( +  in98 ( +  in109 ( +  in1110 ( +  in1211 ( +  in1312 in013))))))))  ( <  ( +  in71 ( +  in87 ( +  in98 ( +  in109 ( +  in1110 ( +  in1211 ( +  in1312 in013))))))) ( +  in81 ( +  in98 ( +  in109 ( +  in1110 ( +  in1211 ( +  in1312 in013))))))))  ( <  ( +  in72 ( +  in87 ( +  in98 ( +  in109 ( +  in1110 ( +  in1211 ( +  in1312 in013))))))) ( +  in82 ( +  in98 ( +  in109 ( +  in1110 ( +  in1211 ( +  in1312 in013))))))))  ( <  ( +  in73 ( +  in87 ( +  in98 ( +  in109 ( +  in1110 ( +  in1211 ( +  in1312 in013))))))) ( +  in83 ( +  in98 ( +  in109 ( +  in1110 ( +  in1211 ( +  in1312 in013))))))))  ( <  ( +  in74 ( +  in87 ( +  in98 ( +  in109 ( +  in1110 ( +  in1211 ( +  in1312 in013))))))) ( +  in84 ( +  in98 ( +  in109 ( +  in1110 ( +  in1211 ( +  in1312 in013))))))))  ( <  ( +  in75 ( +  in87 ( +  in98 ( +  in109 ( +  in1110 ( +  in1211 ( +  in1312 in013))))))) ( +  in85 ( +  in98 ( +  in109 ( +  in1110 ( +  in1211 ( +  in1312 in013))))))))  ( <  ( +  in76 ( +  in87 ( +  in98 ( +  in109 ( +  in1110 ( +  in1211 ( +  in1312 in013))))))) ( +  in86 ( +  in98 ( +  in109 ( +  in1110 ( +  in1211 ( +  in1312 in013))))))))  ( <  ( +  in72 ( +  in87 ( +  in98 ( +  in109 ( +  in1110 ( +  in1211 ( +  in1312 in013))))))) ( +  in71 ( +  in87 ( +  in98 ( +  in109 ( +  in1110 ( +  in1211 ( +  in1312 in013)))))))))  ( <  ( +  in73 ( +  in87 ( +  in98 ( +  in109 ( +  in1110 ( +  in1211 ( +  in1312 in013))))))) ( +  in72 ( +  in87 ( +  in98 ( +  in109 ( +  in1110 ( +  in1211 ( +  in1312 in013)))))))))  ( <  ( +  in74 ( +  in87 ( +  in98 ( +  in109 ( +  in1110 ( +  in1211 ( +  in1312 in013))))))) ( +  in73 ( +  in87 ( +  in98 ( +  in109 ( +  in1110 ( +  in1211 ( +  in1312 in013)))))))))  ( <  ( +  in75 ( +  in87 ( +  in98 ( +  in109 ( +  in1110 ( +  in1211 ( +  in1312 in013))))))) ( +  in74 ( +  in87 ( +  in98 ( +  in109 ( +  in1110 ( +  in1211 ( +  in1312 in013)))))))))  ( <  ( +  in76 ( +  in87 ( +  in98 ( +  in109 ( +  in1110 ( +  in1211 ( +  in1312 in013))))))) ( +  in75 ( +  in87 ( +  in98 ( +  in109 ( +  in1110 ( +  in1211 ( +  in1312 in013)))))))))  ( <  ( +  in61 ( +  in76 ( +  in87 ( +  in98 ( +  in109 ( +  in1110 ( +  in1211 ( +  in1312 in013)))))))) ( +  in71 ( +  in87 ( +  in98 ( +  in109 ( +  in1110 ( +  in1211 ( +  in1312 in013)))))))))  ( <  ( +  in62 ( +  in76 ( +  in87 ( +  in98 ( +  in109 ( +  in1110 ( +  in1211 ( +  in1312 in013)))))))) ( +  in72 ( +  in87 ( +  in98 ( +  in109 ( +  in1110 ( +  in1211 ( +  in1312 in013)))))))))  ( <  ( +  in63 ( +  in76 ( +  in87 ( +  in98 ( +  in109 ( +  in1110 ( +  in1211 ( +  in1312 in013)))))))) ( +  in73 ( +  in87 ( +  in98 ( +  in109 ( +  in1110 ( +  in1211 ( +  in1312 in013)))))))))  ( <  ( +  in64 ( +  in76 ( +  in87 ( +  in98 ( +  in109 ( +  in1110 ( +  in1211 ( +  in1312 in013)))))))) ( +  in74 ( +  in87 ( +  in98 ( +  in109 ( +  in1110 ( +  in1211 ( +  in1312 in013)))))))))  ( <  ( +  in65 ( +  in76 ( +  in87 ( +  in98 ( +  in109 ( +  in1110 ( +  in1211 ( +  in1312 in013)))))))) ( +  in75 ( +  in87 ( +  in98 ( +  in109 ( +  in1110 ( +  in1211 ( +  in1312 in013)))))))))  ( <  ( +  in62 ( +  in76 ( +  in87 ( +  in98 ( +  in109 ( +  in1110 ( +  in1211 ( +  in1312 in013)))))))) ( +  in61 ( +  in76 ( +  in87 ( +  in98 ( +  in109 ( +  in1110 ( +  in1211 ( +  in1312 in013))))))))))  ( <  ( +  in63 ( +  in76 ( +  in87 ( +  in98 ( +  in109 ( +  in1110 ( +  in1211 ( +  in1312 in013)))))))) ( +  in62 ( +  in76 ( +  in87 ( +  in98 ( +  in109 ( +  in1110 ( +  in1211 ( +  in1312 in013))))))))))  ( <  ( +  in64 ( +  in76 ( +  in87 ( +  in98 ( +  in109 ( +  in1110 ( +  in1211 ( +  in1312 in013)))))))) ( +  in63 ( +  in76 ( +  in87 ( +  in98 ( +  in109 ( +  in1110 ( +  in1211 ( +  in1312 in013))))))))))  ( <  ( +  in65 ( +  in76 ( +  in87 ( +  in98 ( +  in109 ( +  in1110 ( +  in1211 ( +  in1312 in013)))))))) ( +  in64 ( +  in76 ( +  in87 ( +  in98 ( +  in109 ( +  in1110 ( +  in1211 ( +  in1312 in013))))))))))  ( <  ( +  in51 ( +  in65 ( +  in76 ( +  in87 ( +  in98 ( +  in109 ( +  in1110 ( +  in1211 ( +  in1312 in013))))))))) ( +  in61 ( +  in76 ( +  in87 ( +  in98 ( +  in109 ( +  in1110 ( +  in1211 ( +  in1312 in013))))))))))  ( <  ( +  in52 ( +  in65 ( +  in76 ( +  in87 ( +  in98 ( +  in109 ( +  in1110 ( +  in1211 ( +  in1312 in013))))))))) ( +  in62 ( +  in76 ( +  in87 ( +  in98 ( +  in109 ( +  in1110 ( +  in1211 ( +  in1312 in013))))))))))  ( <  ( +  in53 ( +  in65 ( +  in76 ( +  in87 ( +  in98 ( +  in109 ( +  in1110 ( +  in1211 ( +  in1312 in013))))))))) ( +  in63 ( +  in76 ( +  in87 ( +  in98 ( +  in109 ( +  in1110 ( +  in1211 ( +  in1312 in013))))))))))  ( <  ( +  in54 ( +  in65 ( +  in76 ( +  in87 ( +  in98 ( +  in109 ( +  in1110 ( +  in1211 ( +  in1312 in013))))))))) ( +  in64 ( +  in76 ( +  in87 ( +  in98 ( +  in109 ( +  in1110 ( +  in1211 ( +  in1312 in013))))))))))  ( <  ( +  in52 ( +  in65 ( +  in76 ( +  in87 ( +  in98 ( +  in109 ( +  in1110 ( +  in1211 ( +  in1312 in013))))))))) ( +  in51 ( +  in65 ( +  in76 ( +  in87 ( +  in98 ( +  in109 ( +  in1110 ( +  in1211 ( +  in1312 in013)))))))))))  ( <  ( +  in53 ( +  in65 ( +  in76 ( +  in87 ( +  in98 ( +  in109 ( +  in1110 ( +  in1211 ( +  in1312 in013))))))))) ( +  in52 ( +  in65 ( +  in76 ( +  in87 ( +  in98 ( +  in109 ( +  in1110 ( +  in1211 ( +  in1312 in013)))))))))))  ( <  ( +  in54 ( +  in65 ( +  in76 ( +  in87 ( +  in98 ( +  in109 ( +  in1110 ( +  in1211 ( +  in1312 in013))))))))) ( +  in53 ( +  in65 ( +  in76 ( +  in87 ( +  in98 ( +  in109 ( +  in1110 ( +  in1211 ( +  in1312 in013)))))))))))  ( <  ( +  in41 ( +  in54 ( +  in65 ( +  in76 ( +  in87 ( +  in98 ( +  in109 ( +  in1110 ( +  in1211 ( +  in1312 in013)))))))))) ( +  in51 ( +  in65 ( +  in76 ( +  in87 ( +  in98 ( +  in109 ( +  in1110 ( +  in1211 ( +  in1312 in013)))))))))))  ( <  ( +  in42 ( +  in54 ( +  in65 ( +  in76 ( +  in87 ( +  in98 ( +  in109 ( +  in1110 ( +  in1211 ( +  in1312 in013)))))))))) ( +  in52 ( +  in65 ( +  in76 ( +  in87 ( +  in98 ( +  in109 ( +  in1110 ( +  in1211 ( +  in1312 in013)))))))))))  ( <  ( +  in43 ( +  in54 ( +  in65 ( +  in76 ( +  in87 ( +  in98 ( +  in109 ( +  in1110 ( +  in1211 ( +  in1312 in013)))))))))) ( +  in53 ( +  in65 ( +  in76 ( +  in87 ( +  in98 ( +  in109 ( +  in1110 ( +  in1211 ( +  in1312 in013)))))))))))  ( <  ( +  in42 ( +  in54 ( +  in65 ( +  in76 ( +  in87 ( +  in98 ( +  in109 ( +  in1110 ( +  in1211 ( +  in1312 in013)))))))))) ( +  in41 ( +  in54 ( +  in65 ( +  in76 ( +  in87 ( +  in98 ( +  in109 ( +  in1110 ( +  in1211 ( +  in1312 in013))))))))))))  ( <  ( +  in43 ( +  in54 ( +  in65 ( +  in76 ( +  in87 ( +  in98 ( +  in109 ( +  in1110 ( +  in1211 ( +  in1312 in013)))))))))) ( +  in42 ( +  in54 ( +  in65 ( +  in76 ( +  in87 ( +  in98 ( +  in109 ( +  in1110 ( +  in1211 ( +  in1312 in013))))))))))))  ( <  ( +  in31 ( +  in43 ( +  in54 ( +  in65 ( +  in76 ( +  in87 ( +  in98 ( +  in109 ( +  in1110 ( +  in1211 ( +  in1312 in013))))))))))) ( +  in41 ( +  in54 ( +  in65 ( +  in76 ( +  in87 ( +  in98 ( +  in109 ( +  in1110 ( +  in1211 ( +  in1312 in013))))))))))))  ( <  ( +  in32 ( +  in43 ( +  in54 ( +  in65 ( +  in76 ( +  in87 ( +  in98 ( +  in109 ( +  in1110 ( +  in1211 ( +  in1312 in013))))))))))) ( +  in42 ( +  in54 ( +  in65 ( +  in76 ( +  in87 ( +  in98 ( +  in109 ( +  in1110 ( +  in1211 ( +  in1312 in013))))))))))))  ( <  ( +  in32 ( +  in43 ( +  in54 ( +  in65 ( +  in76 ( +  in87 ( +  in98 ( +  in109 ( +  in1110 ( +  in1211 ( +  in1312 in013))))))))))) ( +  in31 ( +  in43 ( +  in54 ( +  in65 ( +  in76 ( +  in87 ( +  in98 ( +  in109 ( +  in1110 ( +  in1211 ( +  in1312 in013)))))))))))))  ( <  ( +  in21 ( +  in32 ( +  in43 ( +  in54 ( +  in65 ( +  in76 ( +  in87 ( +  in98 ( +  in109 ( +  in1110 ( +  in1211 ( +  in1312 in013)))))))))))) ( +  in31 ( +  in43 ( +  in54 ( +  in65 ( +  in76 ( +  in87 ( +  in98 ( +  in109 ( +  in1110 ( +  in1211 ( +  in1312 in013))))))))))))))

(check-sat)
(get-model)